certificates/rado_a9_c195_N23.drat
-22 -23 0
d -20 -22 -23 0
-23 0
11 0
22 0
-19 0
-8 0
-14 0
7 0
20 0
2 0
21 0
-4 0
-10 0
-13 0
0
